p cnf 10 50
7 10 1 0
7 -8 3 0
9 -5 10 0
5 -10 7 0
1 -8 -9 0
8 -7 -9 0
-10 -9 2 0
-8 5 6 0
-7 -9 10 0
10 -9 -2 0
4 3 8 0
5 -4 -8 0
2 -9 -10 0
-5 8 2 0
5 7 -9 0
-6 -1 -7 0
5 10 4 0
-6 3 10 0
5 -3 2 0
-10 -4 -9 0
5 2 -7 0
5 -2 9 0
-9 10 2 0
-9 1 -3 0
-7 -6 9 0
6 -4 10 0
-10 -2 -8 0
-5 7 -10 0
-9 -4 -1 0
2 -6 -8 0
-9 -3 4 0
-9 -7 -2 0
5 -2 -4 0
-2 -8 1 0
-4 -1 10 0
-6 2 4 0
-9 4 6 0
6 7 -9 0
1 4 -5 0
-5 2 -4 0
6 -10 4 0
9 -1 2 0
-10 8 7 0
9 -6 4 0
5 4 -7 0
-3 -4 -8 0
-2 -4 -5 0
-9 -3 -2 0
7 -10 2 0
7 -4 -5 0
